N = 20;
max_size = 5;

conflicts = [
    (1,6), (1,17), (1,14), (1,9), (1,12), (1,3), (1,5), (1,2), (1,16), (1,7),
    (2,4), (2,8), (2,14), (2,20), (2,10), (2,9), (2,17), (2,18), (2,15), (2,7),
    (3,11), (3,10), (3,9), (3,15), (3,18), (3,6), (3,8), (3,12),
    (4,13), (4,17), (4,9), (4,11), (4,14), (4,15), (4,16), (4,18), (4,8),
    (5,6), (5,12), (5,8), (5,7), (5,11), (5,15), (5,9), (5,10), (5,14), (5,16), (5,18),
    (6,7), (6,16), (6,18), (6,19), (6,8),
    (7,17), (7,14), (7,12), (7,20),
    (8,15), (8,20), (8,13), (8,18), (8,14), (8,17), (8,16), (8,11),
    (9,20), (9,11), (9,16), (9,12), (9,10), (9,19),
    (10,18), (10,11), (10,12), (10,16),
    (11,16), (11,12), (11,17), (11,20), (11,15), (11,14),
    (12,19), (12,13), (12,16), (12,18), (12,17),
    (13,19), (13,15),
    (14,15), (14,17), (14,20),
    (15,16), (15,18), (15,20),
    (16,17),
    (17,18), (17,19), (17,20),
    (18,19),
    (19,20)
];